p tdp 80 79
3 13
19 8
8 76
74 5
6 66
6 33
30 52
15 23
7 10
36 43
79 38
4 56
33 47
43 20
35 22
18 1
57 15
14 12
68 37
22 60
56 66
62 38
32 60
48 11
55 28
21 75
47 51
46 64
60 27
49 72
29 65
7 44
76 73
26 69
53 5
63 77
75 58
61 34
10 77
9 56
46 70
80 19
10 25
61 29
52 5
19 40
50 2
67 24
31 17
45 26
61 11
42 80
78 22
17 23
14 78
42 3
69 41
75 72
18 17
34 39
38 55
59 12
75 71
41 68
77 1
70 53
36 24
58 8
53 48
54 16
41 62
51 50
77 54
80 20
33 72
17 69
39 12
32 45
20 46
